============================[ Problem Statistics ]=============================|                                                                             ||  Number of variables:          4242                                         ||  Number of clauses:           10124                                         ||  Parse time:                   0.52 s                                       ||                                                                             |============================[ Search Statistics ]==============================| Conflicts |          ORIGINAL         |          LEARNT          | Progress ||           |    Vars  Clauses Literals |    Limit  Clauses Lit/Cl |          |===============================================================================|       100 |    1591     6329   816840 |     2320      100     53 | 62.501 % ||       250 |    1591     6329   816840 |     2552      250     75 | 62.495 % |===============================================================================restarts              : 3conflicts             : 286            (367 /sec)decisions             : 551            (0.00 % random) (707 /sec)propagations          : 11825          (15180 /sec)conflict literals     : 22326          (94.78 % deleted)CPU time              : 0.779 sSATISFIABLE